DIMENSION: 7
EDGE_WEIGHT_TYPE: EXPLICIT
EDGE_WEIGHT_FORMAT: FULL_MATRIX
EDGE_WEIGHT_SECTION:
32767 32767 42 2 86 32767 32767 
32767 32767 60 5 42 74 87 
42 60 32767 35 3 39 32767 
2 5 35 32767 39 43 48 
86 42 3 39 32767 45 21 
32767 74 39 43 45 32767 9 
32767 87 32767 48 21 9 32767 
EOF